840.61 0
0 55 25 39 67 23 75 74 72 73 21 53 0
0 13 95 92 37 100 91 44 14 38 86 16 61 0
0 58 12 68 77 50 1 31 88 89 0
0 28 69 70 32 90 63 64 11 19 48 82 52 0
0 9 51 30 10 62 7 18 60 5 93 59 99 96 0
0 27 20 66 65 71 35 34 78 81 33 79 3 76 0
0 6 97 87 41 22 56 4 54 24 29 80 26 40 2 57 15 43 42 0
0 94 98 85 84 17 45 47 49 36 46 8 83 0